$ http://en.wikipedia.org/wiki/Survo_Puzzle, under "Swapping method"
$ (open puzzle)
language ESSENCE' 1.0
letting r be 4;
letting c be 4;
letting rowsums be [51,36,32,17];
letting colsums be [51,42,26,17];
letting game be
   [
     [0, 0, 0, 0],
     [0, 0, 0, 0],
     [0, 0, 0, 0],
     [0, 0, 0, 0]
   ]
